NAME: instance_3175
TYPE: TSP
DIMENSION: 20
EDGE_WEIGHT_TYPE: EUC_2D
NODE_COORD_SECTION
0 65.45 98.03
1 95.53 19.12
2 62.60 42.42
3 15.66 94.11
4 42.33 17.16
5 18.86 80.75
6 19.77 82.65
7 49.11 64.86
8 89.87 63.04
9 87.71 33.06
10 91.69 98.22
11 66.31 71.02
12 26.65 11.42
13 9.12 37.93
14 35.71 87.02
15 51.07 96.98
16 5.02 28.47
17 8.21 99.32
18 73.58 47.57
19 59.90 57.27
EOF
